\ Model TSP Problem
\ LP format - for model browsing. Use MPS format to capture full model detail.
Minimize
  16.1245154965971 X[0,1] + 15.13274595042156 X[0,2] + 19 X[0,3]
   + 18.11077027627483 X[0,4] + 20.09975124224178 X[0,5]
   + 1.414213562373095 X[0,6] + 16.1245154965971 X[1,0] + X[1,2]
   + 3.605551275463989 X[1,3] + 4.47213595499958 X[1,4]
   + 5.656854249492381 X[1,5] + 15.03329637837291 X[1,6]
   + 15.13274595042156 X[2,0] + X[2,1] + 4.47213595499958 X[2,3] + 5 X[2,4]
   + 6.403124237432849 X[2,5] + 14.0356688476182 X[2,6] + 19 X[3,0]
   + 3.605551275463989 X[3,1] + 4.47213595499958 X[3,2]
   + 2.23606797749979 X[3,4] + 2.23606797749979 X[3,5]
   + 18.02775637731995 X[3,6] + 18.11077027627483 X[4,0]
   + 4.47213595499958 X[4,1] + 5 X[4,2] + 2.23606797749979 X[4,3]
   + 2 X[4,5] + 17.26267650163207 X[4,6] + 20.09975124224178 X[5,0]
   + 5.656854249492381 X[5,1] + 6.403124237432849 X[5,2]
   + 2.23606797749979 X[5,3] + 2 X[5,4] + 19.23538406167134 X[5,6]
   + 1.414213562373095 X[6,0] + 15.03329637837291 X[6,1]
   + 14.0356688476182 X[6,2] + 18.02775637731995 X[6,3]
   + 17.26267650163207 X[6,4] + 19.23538406167134 X[6,5] + 0 T[0]
Subject To
 R0: X[0,0] + X[1,0] + X[2,0] + X[3,0] + X[4,0] + X[5,0] + X[6,0] = 1
 R1: X[0,1] + X[1,1] + X[2,1] + X[3,1] + X[4,1] + X[5,1] + X[6,1] = 1
 R2: X[0,2] + X[1,2] + X[2,2] + X[3,2] + X[4,2] + X[5,2] + X[6,2] = 1
 R3: X[0,3] + X[1,3] + X[2,3] + X[3,3] + X[4,3] + X[5,3] + X[6,3] = 1
 R4: X[0,4] + X[1,4] + X[2,4] + X[3,4] + X[4,4] + X[5,4] + X[6,4] = 1
 R5: X[0,5] + X[1,5] + X[2,5] + X[3,5] + X[4,5] + X[5,5] + X[6,5] = 1
 R6: X[0,6] + X[1,6] + X[2,6] + X[3,6] + X[4,6] + X[5,6] + X[6,6] = 1
 R7: X[0,0] + X[0,1] + X[0,2] + X[0,3] + X[0,4] + X[0,5] + X[0,6] = 1
 R8: X[1,0] + X[1,1] + X[1,2] + X[1,3] + X[1,4] + X[1,5] + X[1,6] = 1
 R9: X[2,0] + X[2,1] + X[2,2] + X[2,3] + X[2,4] + X[2,5] + X[2,6] = 1
 R10: X[3,0] + X[3,1] + X[3,2] + X[3,3] + X[3,4] + X[3,5] + X[3,6] = 1
 R11: X[4,0] + X[4,1] + X[4,2] + X[4,3] + X[4,4] + X[4,5] + X[4,6] = 1
 R12: X[5,0] + X[5,1] + X[5,2] + X[5,3] + X[5,4] + X[5,5] + X[5,6] = 1
 R13: X[6,0] + X[6,1] + X[6,2] + X[6,3] + X[6,4] + X[6,5] + X[6,6] = 1
 R14: T[1] >= 65
 R15: T[1] <= 146
 R16: - 100000.0001 X[1,1] >= -99910.0001
 R17: - 100000.0001 X[1,2] - T[1] + T[2] >= -99909.0001
 R18: - 100000.0001 X[1,3] - T[1] + T[3] >= -99906.39454872454
 R19: - 100000.0001 X[1,4] - T[1] + T[4] >= -99905.527964045
 R20: - 100000.0001 X[1,5] - T[1] + T[5] >= -99904.34324575051
 R21: - 100000.0001 X[1,6] - T[1] + T[6] >= -99894.96680362163
 R22: T[2] >= 15
 R23: T[2] <= 67
 R24: - 100000.0001 X[2,1] + T[1] - T[2] >= -99909.0001
 R25: - 100000.0001 X[2,2] >= -99910.0001
 R26: - 100000.0001 X[2,3] - T[2] + T[3] >= -99905.527964045
 R27: - 100000.0001 X[2,4] - T[2] + T[4] >= -99905.0001
 R28: - 100000.0001 X[2,5] - T[2] + T[5] >= -99903.59697576257
 R29: - 100000.0001 X[2,6] - T[2] + T[6] >= -99895.96443115239
 R30: T[3] >= 621
 R31: T[3] <= 702
 R32: - 100000.0001 X[3,1] + T[1] - T[3] >= -99906.39454872454
 R33: - 100000.0001 X[3,2] + T[2] - T[3] >= -99905.527964045
 R34: - 100000.0001 X[3,3] >= -99910.0001
 R35: - 100000.0001 X[3,4] - T[3] + T[4] >= -99907.7640320225
 R36: - 100000.0001 X[3,5] - T[3] + T[5] >= -99907.7640320225
 R37: - 100000.0001 X[3,6] - T[3] + T[6] >= -99891.97234362268
 R38: T[4] >= 255
 R39: T[4] <= 324
 R40: - 100000.0001 X[4,1] + T[1] - T[4] >= -99905.527964045
 R41: - 100000.0001 X[4,2] + T[2] - T[4] >= -99905.0001
 R42: - 100000.0001 X[4,3] + T[3] - T[4] >= -99907.7640320225
 R43: - 100000.0001 X[4,4] >= -99910.0001
 R44: - 100000.0001 X[4,5] - T[4] + T[5] >= -99908.0001
 R45: - 100000.0001 X[4,6] - T[4] + T[6] >= -99892.73742349837
 R46: T[5] >= 534
 R47: T[5] <= 605
 R48: - 100000.0001 X[5,1] + T[1] - T[5] >= -99904.34324575051
 R49: - 100000.0001 X[5,2] + T[2] - T[5] >= -99903.59697576257
 R50: - 100000.0001 X[5,3] + T[3] - T[5] >= -99907.7640320225
 R51: - 100000.0001 X[5,4] + T[4] - T[5] >= -99908.0001
 R52: - 100000.0001 X[5,5] >= -99910.0001
 R53: - 100000.0001 X[5,6] - T[5] + T[6] >= -99890.76471593833
 R54: T[6] >= 448
 R55: T[6] <= 505
 R56: - 100000.0001 X[6,1] + T[1] - T[6] >= -99894.96680362163
 R57: - 100000.0001 X[6,2] + T[2] - T[6] >= -99895.96443115239
 R58: - 100000.0001 X[6,3] + T[3] - T[6] >= -99891.97234362268
 R59: - 100000.0001 X[6,4] + T[4] - T[6] >= -99892.73742349837
 R60: - 100000.0001 X[6,5] + T[5] - T[6] >= -99890.76471593833
 R61: - 100000.0001 X[6,6] >= -99910.0001
Bounds
Binaries
 X[0,0] X[0,1] X[0,2] X[0,3] X[0,4] X[0,5] X[0,6] X[1,0] X[1,1] X[1,2]
 X[1,3] X[1,4] X[1,5] X[1,6] X[2,0] X[2,1] X[2,2] X[2,3] X[2,4] X[2,5]
 X[2,6] X[3,0] X[3,1] X[3,2] X[3,3] X[3,4] X[3,5] X[3,6] X[4,0] X[4,1]
 X[4,2] X[4,3] X[4,4] X[4,5] X[4,6] X[5,0] X[5,1] X[5,2] X[5,3] X[5,4]
 X[5,5] X[5,6] X[6,0] X[6,1] X[6,2] X[6,3] X[6,4] X[6,5] X[6,6]
End
